c 177_win_checker.cnf
c
c field = 177
c formula set type = win_checker
c
p cnf 5 50
344 
346 
348 
350 
-342 
345 
347 
349 
351 
-343 
344 
346 
348 
350 
-354 
345 
347 
349 
351 
-355 
346 
348 
350 
354 
-344 
347 
349 
351 
355 
-345 
346 
348 
350 
354 
-356 
347 
349 
351 
355 
-357 
348 
350 
354 
356 
-346 
349 
351 
355 
357 
-347 
348 
350 
354 
356 
-358 
349 
351 
355 
357 
-359 
350 
354 
356 
358 
-348 
351 
355 
357 
359 
-349 
232 
262 
292 
322 
-202 
233 
263 
293 
323 
-203 
232 
262 
292 
322 
-382 
233 
263 
293 
323 
-383 
262 
292 
322 
382 
-232 
263 
293 
323 
383 
-233 
262 
292 
322 
382 
-412 
263 
293 
323 
383 
-413 
292 
322 
382 
412 
-262 
293 
323 
383 
413 
-263 
292 
322 
382 
412 
-442 
293 
323 
383 
413 
-443 
322 
382 
412 
442 
-292 
323 
383 
413 
443 
-293 
224 
256 
288 
320 
-192 
225 
257 
289 
321 
-193 
224 
256 
288 
320 
-384 
225 
257 
289 
321 
-385 
256 
288 
320 
384 
-224 
257 
289 
321 
385 
-225 
256 
288 
320 
384 
-416 
257 
289 
321 
385 
-417 
288 
320 
384 
416 
-256 
289 
321 
385 
417 
-257 
288 
320 
384 
416 
-448 
289 
321 
385 
417 
-449 
320 
384 
416 
448 
-288 
321 
385 
417 
449 
-289 
268 
296 
324 
380 
-408 
269 
297 
325 
381 
-409 
296 
324 
380 
408 
-268 
297 
325 
381 
409 
-269 
296 
324 
380 
408 
-436 
297 
325 
381 
409 
-437 
324 
380 
408 
436 
-296 
325 
381 
409 
437 
-297 
